NAME : traveling-santa-2018-prime-paths.29806.tour
COMMENT : Length = 29806
COMMENT : Found by LKH [Keld Helsgaun] Sun Jun 12 19:59:35 2022
TYPE : TOUR
DIMENSION : 100
TOUR_SECTION
1
16
31
90
67
96
38
100
65
41
84
76
60
53
51
15
44
93
2
62
59
82
52
70
33
39
64
12
24
19
88
22
27
8
69
25
23
80
54
29
28
66
58
45
56
11
99
40
4
89
97
87
95
46
50
5
63
94
98
20
35
68
79
18
78
92
91
77
26
6
42
83
85
14
30
48
71
73
72
17
34
86
9
61
55
43
21
75
10
3
7
47
49
74
13
81
36
32
37
57
-1
EOF
